
        H = 50;
        W = 200;
        qtdeNiveis = 5;
        qtdeCategorias = 3;
        
        Wmin = [75,70,50];
        Wmax = [140,120,110];
        Ir = [{},{1},{2}];
        h = [26.5,20];
        w = [6.5,8.7];
        d = [10,3];
        